0 2047
1 1932
2 1874
3 1837
4 1831
5 1720
6 1714
7 1710
8 1701
9 1701
10 1701
11 1663
12 1663
13 1663
14 1617
15 1585
16 1539
17 1539
18 1539
19 1522
20 1512
21 1512
22 1501
23 1451
24 1451
25 1450
26 1450
27 1450
28 1443
29 1443
30 1443
31 1443
32 1432
33 1432
34 1422
35 1422
36 1422
37 1422
38 1399
39 1399
40 1399
41 1399
42 1399
43 1399
44 1391
45 1391
46 1383
47 1374
48 1374
49 1366
50 1366
51 1336
52 1326
53 1326
54 1326
55 1307
56 1307
57 1307
58 1307
59 1307
60 1307
61 1307
62 1307
63 1307
64 1307
65 1307
66 1307
67 1307
68 1307
69 1307
70 1307
71 1307
72 1307
73 1307
74 1307
75 1307
76 1307
77 1282
78 1282
79 1282
80 1282
81 1282
82 1282
83 1282
84 1282
85 1282
86 1282
87 1282
88 1282
89 1282
90 1282
91 1282
92 1282
93 1282
94 1282
95 1282
96 1282
97 1282
98 1282
99 1271
100 1271
101 1250
102 1250
103 1250
104 1250
105 1250
106 1250
107 1247
108 1240
109 1214
110 1214
111 1214
112 1214
113 1209
114 1183
115 1170
116 1170
117 1170
118 1170
119 1170
120 1170
121 1170
122 1170
123 1170
124 1170
125 1142
126 1142
127 1142
128 1142
129 1142
130 1139
131 1139
132 1139
133 1110
134 1110
135 1110
136 1110
137 1110
138 1110
139 1110
140 1110
141 1110
142 1110
143 1110
144 1110
145 1110
146 1110
147 1110
148 1110
149 1110
150 1110
151 1110
152 1110
153 1110
154 1110
155 1110
156 1110
157 1110
158 1110
159 1110
160 1110
161 1110
162 1110
163 1110
164 1110
165 1110
166 1110
167 1110
168 1110
169 1110
170 1110
171 1110
172 1110
173 1110
174 1110
175 1110
176 1110
177 1110
178 1110
179 1110
180 1110
181 1110
182 1110
183 1110
184 1110
185 1110
186 1110
187 1110
188 1110
189 1110
190 1110
191 1110
192 1110
193 1110
194 1110
195 1110
196 1110
197 1110
198 1110
199 1110
200 1110
201 1110
202 1110
203 1110
204 1110
205 1110
206 1110
207 1110
208 1110
209 1110
210 1110
211 1110
212 1110
213 1110
214 1110
215 1110
216 1110
217 1110
218 1110
219 1110
220 1110
221 1110
222 1110
223 1110
224 1110
225 1110
226 1102
227 1102
228 1102
229 1102
230 1102
231 1102
232 1102
233 1102
234 1102
235 1102
236 1102
237 1102
238 1102
239 1102
240 1102
241 1102
242 1102
243 1102
244 1102
245 1102
246 1102
247 1102
248 1102
249 1102
250 1102
251 1102
252 1102
253 1102
254 1102
255 1102
256 1102
257 1102
258 1102
259 1102
260 1102
261 1102
262 1102
263 1102
264 1102
265 1102
266 1102
267 1102
268 1102
269 1102
270 1102
271 1102
272 1102
273 1102
274 1102
275 1102
276 1102
277 1102
278 1102
279 1102
280 1102
281 1102
282 1102
283 1102
284 1102
285 1102
286 1102
287 1102
288 1102
289 1102
290 1102
291 1102
292 1102
293 1102
294 1102
295 1102
296 1102
297 1102
298 1102
299 1102
300 1102
301 1102
302 1102
303 1102
304 1102
305 1102
306 1102
307 1102
308 1102
309 1102
310 1102
311 1102
312 1102
313 1102
314 1102
315 1102
316 1102
317 1102
318 1102
319 1102
320 1102
321 1102
322 1102
323 1102
324 1102
325 1102
326 1102
327 1102
328 1102
329 1102
330 1102
331 1102
332 1102
333 1097
334 1097
335 1097
336 1097
337 1097
338 1097
339 1097
340 1097
341 1097
342 1097
343 1097
344 1097
345 1097
346 1097
347 1097
348 1097
349 1097
350 1097
351 1097
352 1097
353 1097
354 1097
355 1097
356 1097
357 1097
358 1094
359 1094
360 1094
361 1094
362 1094
363 1094
364 1094
365 1094
366 1094
367 1094
368 1094
369 1094
370 1094
371 1094
372 1094
373 1094
374 1094
375 1094
376 1094
377 1094
378 1094
379 1090
380 1090
381 1090
382 1090
383 1090
384 1090
385 1090
386 1090
387 1090
388 1090
389 1090
390 1090
391 1090
392 1090
393 1090
394 1090
395 1090
396 1090
397 1090
398 1090
399 1090
400 1090
401 1090
402 1090
403 1090
404 1090
405 1090
406 1090
407 1090
408 1090
409 1090
410 1090
411 1090
412 1090
413 1090
414 1090
415 1090
416 1090
417 1090
418 1090
419 1090
420 1090
421 1090
422 1090
423 1090
424 1090
425 1090
426 1090
427 1090
428 1090
429 1090
430 1090
431 1090
432 1090
433 1090
434 1090
435 1090
436 1090
437 1090
438 1090
439 1090
440 1090
441 1090
442 1090
443 1090
444 1090
445 1090
446 1090
447 1090
448 1090
449 1090
450 1090
451 1090
452 1090
453 1090
454 1090
455 1090
456 1090
457 1090
458 1090
459 1090
460 1090
461 1090
462 1090
463 1090
464 1090
465 1090
466 1090
467 1090
468 1090
469 1090
470 1090
471 1090
472 1090
473 1090
474 1090
475 1090
476 1090
477 1090
478 1090
479 1090
480 1090
481 1090
482 1090
483 1090
484 1090
485 1090
486 1090
487 1090
488 1090
489 1090
490 1090
491 1090
492 1090
493 1090
494 1090
495 1090
496 1090
497 1090
498 1090
499 1090
500 1090
501 1090
502 1090
503 1090
504 1090
505 1090
506 1090
507 1090
508 1090
509 1090
510 1090
511 1090
512 1090
513 1090
514 1090
515 1090
516 1090
517 1090
518 1090
519 1090
520 1090
521 1090
522 1090
523 1090
524 1090
525 1090
526 1090
527 1090
528 1090
529 1090
530 1090
531 1090
532 1090
533 1090
534 1090
535 1090
536 1090
537 1090
538 1090
539 1090
540 1090
541 1090
542 1090
543 1090
544 1090
545 1090
546 1090
547 1090
548 1090
549 1090
550 1090
551 1090
552 1090
553 1090
554 1090
555 1090
556 1090
557 1090
558 1090
559 1090
560 1090
561 1090
562 1090
563 1090
564 1090
565 1090
566 1090
567 1090
568 1090
569 1090
570 1090
571 1090
572 1090
573 1090
574 1090
575 1090
576 1090
577 1090
578 1090
579 1090
580 1090
581 1090
582 1090
583 1090
584 1090
585 1090
586 1090
587 1090
588 1090
589 1090
590 1090
591 1090
592 1090
593 1090
594 1090
595 1090
596 1090
597 1090
598 1090
599 1090
600 1090
601 1090
602 1090
603 1090
604 1090
605 1090
606 1090
607 1090
608 1090
609 1090
610 1090
611 1090
612 1090
613 1090
614 1090
615 1090
616 1090
617 1090
618 1090
619 1090
620 1090
621 1090
622 1090
623 1090
624 1090
625 1090
626 1090
627 1090
628 1090
629 1090
630 1090
631 1090
632 1090
633 1090
634 1090
635 1090
636 1090
637 1090
638 1090
639 1090
640 1090
641 1090
642 1090
643 1090
644 1090
645 1090
646 1090
647 1090
648 1090
649 1090
650 1090
651 1090
652 1090
653 1090
654 1090
655 1090
656 1090
657 1090
658 1090
659 1090
660 1090
661 1090
662 1090
663 1090
664 1090
665 1090
666 1090
667 1090
668 1090
669 1090
670 1090
671 1090
672 1090
673 1090
674 1090
675 1090
676 1090
677 1090
678 1090
679 1090
680 1090
681 1090
682 1090
683 1090
684 1090
685 1090
686 1090
687 1090
688 1090
689 1090
690 1090
691 1090
692 1090
693 1090
694 1090
695 1090
696 1090
697 1090
698 1090
699 1090
700 1090
701 1090
702 1090
703 1090
704 1090
705 1090
706 1090
707 1090
708 1090
709 1090
710 1090
711 1090
712 1090
713 1090
714 1090
715 1090
716 1090
717 1090
718 1090
719 1090
720 1090
721 1090
722 1090
723 1090
724 1090
725 1090
726 1090
727 1090
728 1090
729 1090
730 1090
731 1090
732 1090
733 1090
734 1090
735 1090
736 1090
737 1090
738 1090
739 1090
740 1090
741 1090
742 1090
743 1090
744 1090
745 1090
746 1090
747 1090
748 1090
749 1090
750 1090
751 1090
752 1090
753 1090
754 1090
755 1090
756 1090
757 1090
758 1090
759 1090
760 1090
761 1090
762 1090
763 1090
764 1090
765 1090
766 1090
767 1090
768 1090
769 1090
770 1090
771 1090
772 1090
773 1090
774 1090
775 1090
776 1090
777 1090
778 1090
779 1090
780 1090
781 1090
782 1090
783 1090
784 1090
785 1090
786 1090
787 1090
788 1090
789 1090
790 1090
791 1090
792 1090
793 1090
794 1090
795 1090
796 1090
797 1090
798 1090
799 1090
800 1090
801 1090
802 1090
803 1090
804 1090
805 1090
806 1090
807 1090
808 1090
809 1090
810 1090
811 1090
812 1090
813 1090
814 1090
815 1090
816 1090
817 1090
818 1090
819 1090
820 1090
821 1090
822 1090
823 1090
824 1090
825 1090
826 1090
827 1090
828 1090
829 1090
830 1090
831 1090
832 1090
833 1090
834 1090
835 1090
836 1090
837 1090
838 1090
839 1090
840 1090
841 1090
842 1090
843 1090
844 1090
845 1090
846 1090
847 1090
848 1090
849 1090
850 1090
851 1090
852 1090
853 1090
854 1090
855 1090
856 1090
857 1090
858 1090
859 1090
860 1090
861 1090
862 1090
863 1090
864 1090
865 1090
866 1090
867 1090
868 1090
869 1090
870 1090
871 1090
872 1090
873 1090
874 1090
875 1090
876 1090
877 1090
878 1090
879 1090
880 1090
881 1090
882 1090
883 1090
884 1090
885 1090
886 1090
887 1090
888 1090
889 1090
890 1090
891 1090
892 1090
893 1090
894 1090
895 1090
896 1090
897 1090
898 1090
899 1090
900 1090
901 1090
902 1090
903 1090
904 1090
905 1090
906 1090
907 1090
908 1090
909 1090
910 1090
911 1090
912 1090
913 1090
914 1090
915 1090
916 1090
917 1090
918 1090
919 1090
920 1090
921 1090
922 1090
923 1090
924 1090
925 1090
926 1090
927 1090
928 1090
929 1090
930 1090
931 1090
932 1090
933 1090
934 1090
935 1090
936 1090
937 1090
938 1090
939 1090
940 1090
941 1090
942 1090
943 1090
944 1090
945 1090
946 1090
947 1090
948 1090
949 1090
950 1090
951 1090
952 1090
953 1090
954 1090
955 1090
956 1090
957 1090
958 1090
959 1090
960 1090
961 1090
962 1090
963 1090
964 1090
965 1090
966 1090
967 1090
968 1090
969 1090
970 1090
971 1090
972 1090
973 1090
974 1090
975 1090
976 1090
977 1090
978 1090
979 1090
980 1090
981 1090
982 1090
983 1090
984 1090
985 1090
986 1090
987 1090
988 1090
989 1090
990 1090
991 1090
992 1090
993 1090
994 1090
995 1090
996 1090
997 1090
998 1090
999 1090
Best: [[21,26,6,25,17,2],
       [31,19,29,5,12,9,10,16],
       [22,32,20,18,3,4,7],
       [27,13,8,14,24,23,11,30,28,15]], fitness: 1090
